memory 4 GB

molecule  {
0 3
O   -1.639463546127   -0.022711330962    0.000000000000 
H   -0.676514348020   -0.024533433983    0.000000000000          
H   -1.864407177712    0.912114232532    0.000000000000
O    1.799564701993   -0.033214328423    0.000000000000
}
set {
basis aug-cc-pvtz
reference uhf
e_convergence 10
scf_type pk
freeze_core true
}

set ccenergy {
e_convergence 10
r_convergence 10
}

e = energy('ccsd(t)')

print_out('Stephenergy {}'.format(e))

