memory 4 GB

molecule  {
0 3
O   -0.000000000000    0.000000000000   -1.616354722000
H    0.000000000000   -0.753858521800   -1.019959688800
H   -0.000000000000    0.753858521800   -1.019959688800
O   -0.000000000000    0.000000000000    1.744888187900
}
set {
basis aug-cc-pvtz
reference uhf
e_convergence 10
scf_type pk
freeze_core true
}

set ccenergy {
e_convergence 10
r_convergence 10
}

e = energy('ccsd(t)')

print_out('Stephenergy {}'.format(e))

