memory 4 GB

molecule  {
0 3
O    0.000000000000    0.000000000000   -1.647450055281
H    0.000000000000   -0.752418562268   -1.051017133781
H   -0.000000000000    0.752418562268   -1.051017133781
O    0.000000000000    0.000000000000    1.779897323919
}
set {
basis aug-cc-pvtz
reference uhf
e_convergence 10
scf_type pk
freeze_core true
}

set ccenergy {
e_convergence 10
r_convergence 10
}

e = energy('ccsd(t)')

print_out('Stephenergy {}'.format(e))

