memory 4 GB

molecule  {
0 3
O    0.000000000000    0.000000000000   -1.633389526993
H    0.000000000000   -0.754273173400   -1.036646064319
H   -0.000000000000    0.754273173400   -1.036646064319
O    0.000000000000    0.000000000000    1.764025779581
}
set {
basis aug-cc-pvtz
reference uhf
e_convergence 10
scf_type pk
freeze_core true
}

set ccenergy {
e_convergence 10
r_convergence 10
}

e = energy('ccsd(t)')

print_out('Stephenergy {}'.format(e))

