memory 4 GB

molecule  {
0 3
O    0.000000000000    0.000000000000    1.260293419042
H    0.000000000000   -0.760493697200    1.847991261768
H   -0.000000000000    0.760493697200    1.847991261768
O    0.000000000000    0.000000000000   -1.493173918532
}
set {
basis aug-cc-pvtz
reference uhf
e_convergence 10
scf_type pk
freeze_core true
}

set ccenergy {
e_convergence 10
r_convergence 10
}

e = energy('ccsd(t)')

print_out('Stephenergy {}'.format(e))

