memory 4 GB

molecule  {
0 3
O    0.000000000000    0.000000000000    1.254192500500
H    0.000000000000   -0.759608112600    1.844980637774
H   -0.000000000000    0.759608112600    1.844980637774
O    0.000000000000    0.000000000000   -1.486693606626
}
set {
basis aug-cc-pvtz
reference uhf
e_convergence 10
scf_type pk
freeze_core true
}

set ccenergy {
e_convergence 10
r_convergence 10
}

e = energy('ccsd(t)')

print_out('Stephenergy {}'.format(e))

