memory 4 GB

molecule  {
0 3
O    0.000000000000    0.000000000000   -1.646968585107
H    0.000000000000   -0.754282208900   -1.049688451963
H   -0.000000000000    0.754282208900   -1.049688451963
O    0.000000000000    0.000000000000    1.779248415678
}
set {
basis aug-cc-pvtz
reference uhf
e_convergence 10
scf_type pk
freeze_core true
}

set ccenergy {
e_convergence 10
r_convergence 10
}

e = energy('ccsd(t)')

print_out('Stephenergy {}'.format(e))

