memory 4 GB

molecule  {
0 3
O   -1.503637377954   -0.001213585762    0.000000000000 
H   -0.554641358387    0.156583212217    0.000000000000          
H   -1.894831079399    0.877184441611    0.000000000000
O    1.657976409907   -0.063923174503    0.000000000000
}
set {
basis aug-cc-pvtz
reference uhf
e_convergence 10
scf_type pk
freeze_core true
}

set ccenergy {
e_convergence 10
r_convergence 10
}

e = energy('ccsd(t)')

print_out('Stephenergy {}'.format(e))

