memory 4 GB

molecule  {
0 3
O   -1.504744251557   -0.001191842846    0.000000000000
H   -0.553951593525    0.156621702098    0.000000000000
H   -1.894120189722    0.877195172390    0.000000000000
O    1.658995029540   -0.063948018768    0.000000000000
}
set {
basis aug-cc-pvtz
reference uhf
e_convergence 10
scf_type pk
freeze_core true
}

set ccenergy {
e_convergence 10
r_convergence 10
}

e = energy('ccsd(t)')

print_out('Stephenergy {}'.format(e))

