memory 4 GB

molecule  {
0 3
O   -1.504743832738   -0.001191779147    0.000000000000 
H   -0.553951290405    0.156622399987    0.000000000000          
H   -1.894120447394    0.877195087693    0.000000000000
O    1.658994607858   -0.063948121104    0.000000000000
}
set {
basis aug-cc-pvtz
reference uhf
e_convergence 10
scf_type pk
freeze_core true
}

set ccenergy {
e_convergence 10
r_convergence 10
}

e = energy('ccsd(t)')

print_out('Stephenergy {}'.format(e))

