memory 4 GB

molecule  {
0 3
O   -1.519781476600   -0.028215155400    0.000000000000 
H   -0.556983962500   -0.003535423700    0.000000000000          
H   -1.780720290800    0.896896610700    0.000000000000
O    1.667078096900   -0.028074721100    0.000000000000
}
set {
basis aug-cc-pvtz
reference uhf
e_convergence 10
scf_type pk
freeze_core true
}

set ccenergy {
e_convergence 10
r_convergence 10
}

e = energy('ccsd(t)')

print_out('Stephenergy {}'.format(e))

