memory 4 GB

molecule  {
0 3
O   -1.504262787402   -0.001191536213    0.000000000000 
H   -0.556937955127    0.156670137340    0.000000000000          
H   -1.894373301149    0.877278142539    0.000000000000
O    1.658717681637   -0.063956605136    0.000000000000
}
set {
basis aug-cc-pvtz
reference uhf
e_convergence 10
scf_type pk
freeze_core true
}

set ccenergy {
e_convergence 10
r_convergence 10
}

e = energy('ccsd(t)')

print_out('Stephenergy {}'.format(e))

