memory 4 GB

molecule  {
0 3
O   -1.643497874596   -0.028688748142    0.000000000000 
H   -0.690937295414   -0.028671805495    0.000000000000          
H   -1.893642485298    0.939337637409    0.000000000000
O    1.806349897426   -0.028691478213    0.000000000000
}
set {
basis aug-cc-pvtz
reference uhf
e_convergence 10
scf_type pk
freeze_core true
}

set ccenergy {
e_convergence 10
r_convergence 10
}

e = energy('ccsd(t)')

print_out('Stephenergy {}'.format(e))

