memory 4 GB

molecule  {
0 3
O    0.000000000000    0.000000000000   -1.588748526300
H    0.000000000000   -0.752993714200   -0.989765661800
H   -0.000000000000    0.752993714200   -0.989765661800
O    0.000000000000   -0.000000000000    1.713476995800
}
set {
basis aug-cc-pvtz
reference uhf
e_convergence 10
scf_type pk
freeze_core true
}

set ccenergy {
e_convergence 10
r_convergence 10
}

e = energy('ccsd(t)')

print_out('Stephenergy {}'.format(e))

