memory 4 GB

molecule  {
0 3
O   -0.000000000000    0.000000000000    1.259811948900
H    0.000000000000   -0.760493697200    1.848418848300
H   -0.000000000000    0.760493697200    1.848418848300
O   -0.000000000000    0.000000000000   -1.492746332000
}
set {
basis aug-cc-pvtz
reference uhf
e_convergence 10
scf_type pk
freeze_core true
}

set ccenergy {
e_convergence 10
r_convergence 10
}

e = energy('ccsd(t)')

print_out('Stephenergy {}'.format(e))

