memory 4 GB

molecule  {
0 3
O   -1.558088525294   -0.023120912104    0.000000000000 
H   -0.595019690094   -0.017336672004    0.000000000000          
H   -1.816524260081    0.899915744403    0.000000000000
O    1.710037717716   -0.032489593062    0.000000000000
}
set {
basis aug-cc-pvtz
reference uhf
e_convergence 10
scf_type pk
freeze_core true
}

set ccenergy {
e_convergence 10
r_convergence 10
}

e = energy('ccsd(t)')

print_out('Stephenergy {}'.format(e))

