memory 4 GB

molecule  {
0 3
O   -1.504118848002   -0.001213898208    0.000000000000 
H   -0.554213804302    0.156583097092    0.000000000000          
H   -1.891932609556    0.876529485027    0.000000000000
O    1.658248310210   -0.063881586584    0.000000000000
}
set {
basis aug-cc-pvtz
reference uhf
e_convergence 10
scf_type pk
freeze_core true
}

set ccenergy {
e_convergence 10
r_convergence 10
}

e = energy('ccsd(t)')

print_out('Stephenergy {}'.format(e))

