memory 4 GB

molecule  {
0 3
O   -1.626052396214   -0.021981021372    0.000000000000 
H   -0.663303466805   -0.021626739354    0.000000000000          
H   -1.860702330713    0.911801262630    0.000000000000
O    1.785087707420   -0.034108066251    0.000000000000
}
set {
basis aug-cc-pvtz
reference uhf
e_convergence 10
scf_type pk
freeze_core true
}

set ccenergy {
e_convergence 10
r_convergence 10
}

e = energy('ccsd(t)')

print_out('Stephenergy {}'.format(e))

