memory 4 GB

molecule  {
0 3
O   -1.504262787402   -0.001191536213    0.000000000000 
H   -0.554379150402    0.158869675271    0.000000000000          
H   -1.894861146492    0.875878603480    0.000000000000
O    1.658587192369   -0.064007012337    0.000000000000
}
set {
basis aug-cc-pvtz
reference uhf
e_convergence 10
scf_type pk
freeze_core true
}

set ccenergy {
e_convergence 10
r_convergence 10
}

e = energy('ccsd(t)')

print_out('Stephenergy {}'.format(e))

