memory 4 GB

molecule  {
0 3
O    0.000000000000    0.000000000000    1.270171675013
H    0.000000000000   -0.757966075568    1.859550751513
H   -0.000000000000    0.757966075568    1.859550751513
O    0.000000000000    0.000000000000   -1.504508880387
}
set {
basis aug-cc-pvtz
reference uhf
e_convergence 10
scf_type pk
freeze_core true
}

set ccenergy {
e_convergence 10
r_convergence 10
}

e = energy('ccsd(t)')

print_out('Stephenergy {}'.format(e))

