memory 4 GB

molecule  {
0 3
O   -1.504262781504   -0.001404642696    0.000000000000
H   -0.554288693418    0.157910210555    0.000000000000
H   -1.894038154398    0.879263214932    0.000000000000
O    1.658529630875   -0.063946712146    0.000000000000
}
set {
basis aug-cc-pvtz
reference uhf
e_convergence 10
scf_type pk
freeze_core true
}

set ccenergy {
e_convergence 10
r_convergence 10
}

e = energy('ccsd(t)')

print_out('Stephenergy {}'.format(e))

