memory 4 GB

molecule  {
0 3
O   -1.638982113598   -0.022705896175    0.000000000000 
H   -0.679502693438   -0.024545326967    0.000000000000          
H   -1.864685888559    0.912098403251    0.000000000000
O    1.799289123709   -0.033218016455    0.000000000000
}
set {
basis aug-cc-pvtz
reference uhf
e_convergence 10
scf_type pk
freeze_core true
}

set ccenergy {
e_convergence 10
r_convergence 10
}

e = energy('ccsd(t)')

print_out('Stephenergy {}'.format(e))

