memory 4 GB

molecule  {
0 3
O   -1.496507563314   -0.004847340589    0.000000000000 
H   -0.544109223614    0.140896206782    0.000000000000          
H   -1.875776255141    0.879434936941    0.000000000000
O    1.648982347870   -0.059442797387    0.000000000000
}
set {
basis aug-cc-pvtz
reference uhf
e_convergence 10
scf_type pk
freeze_core true
}

set ccenergy {
e_convergence 10
r_convergence 10
}

e = energy('ccsd(t)')

print_out('Stephenergy {}'.format(e))

