memory 4 GB

molecule  {
0 3
O    0.000000000000    0.000000000000   -1.442447199126
H    0.000000000000   -0.729955010400   -0.826570644600
H   -0.000000000000    0.729955010400   -0.826570644600
O    0.000000000000    0.000000000000    1.546610129200
}
set {
basis aug-cc-pvtz
reference uhf
e_convergence 10
scf_type pk
freeze_core true
}

set ccenergy {
e_convergence 10
r_convergence 10
}

e = energy('ccsd(t)')

print_out('Stephenergy {}'.format(e))

