memory 4 GB

molecule  {
0 3
O   -1.520031290148   -0.026862046710    0.000000000000 
H   -0.558264327233   -0.014200479898    0.000000000000          
H   -1.784764929683    0.896689661152    0.000000000000
O    1.667663434021   -0.028742794497    0.000000000000
}
set {
basis aug-cc-pvtz
reference uhf
e_convergence 10
scf_type pk
freeze_core true
}

set ccenergy {
e_convergence 10
r_convergence 10
}

e = energy('ccsd(t)')

print_out('Stephenergy {}'.format(e))

