memory 4 GB

molecule  {
0 3
O    -1.5042627815  -0.0011915362   0.0000000000
H    -0.5543791482   0.1566218151   0.0000000000
H    -1.8945475975   0.8771955586   0.0000000000
O     1.6585674299  -0.0639483569   0.0000000000
}
set {
basis aug-cc-pvtz
reference uhf
e_convergence 10
scf_type pk
freeze_core true
}

set ccenergy {
e_convergence 10
r_convergence 10
}

e = energy('ccsd(t)')

print_out('Stephenergy {}'.format(e))

