memory 4 GB

molecule  {
0 3
O    0.000000000000    0.000000000000   -1.647450055300
H    0.000000000000   -0.754282208900   -1.051017133800
H   -0.000000000000    0.754282208900   -1.051017133800
O    0.000000000000    0.000000000000    1.779897323900
}
set {
basis aug-cc-pvtz
reference uhf
e_convergence 10
scf_type pk
freeze_core true
}

set ccenergy {
e_convergence 10
r_convergence 10
}

e = energy('ccsd(t)')

print_out('Stephenergy {}'.format(e))

