memory 4 GB

molecule  {
0 3
O   -1.522636442466   -0.029150187321    0.000000000000 
H   -0.559945828539   -0.009153016772    0.000000000000          
H   -1.777784967353    0.899732154997    0.000000000000
O    1.669934735126   -0.026964394721    0.000000000000
}
set {
basis aug-cc-pvtz
reference uhf
e_convergence 10
scf_type pk
freeze_core true
}

set ccenergy {
e_convergence 10
r_convergence 10
}

e = energy('ccsd(t)')

print_out('Stephenergy {}'.format(e))

