memory 4 GB

molecule  {
0 3
O     0.0000000000   0.0000000000  -1.6474500553
H     0.0000000000  -0.7542822089  -1.0510171338
H    -0.0000000000   0.7542822089  -1.0510171338
O     0.0000000000   0.0000000000   1.7798973239
}
set {
basis aug-cc-pvtz
reference uhf
e_convergence 10
scf_type pk
freeze_core true
}

set ccenergy {
e_convergence 10
r_convergence 10
}

e = energy('ccsd(t)')

print_out('Stephenergy {}'.format(e))

