memory 4 GB

molecule  {
0 3
O   -1.503773339178   -0.001189832490    0.000000000000 
H   -0.554799946344    0.156632171191    0.000000000000          
H   -1.894975785921    0.877192382983    0.000000000000
O    1.658131481440   -0.063950513014    0.000000000000
}
set {
basis aug-cc-pvtz
reference uhf
e_convergence 10
scf_type pk
freeze_core true
}

set ccenergy {
e_convergence 10
r_convergence 10
}

e = energy('ccsd(t)')

print_out('Stephenergy {}'.format(e))

