memory 4 GB

molecule  {
0 3
O   -1.504744251557   -0.001404949357    0.000000000000
H   -0.553861138739    0.157910097539    0.000000000000
H   -1.893610746616    0.879262828708    0.000000000000
O    1.658957230519   -0.063946374028    0.000000000000
}
set {
basis aug-cc-pvtz
reference uhf
e_convergence 10
scf_type pk
freeze_core true
}

set ccenergy {
e_convergence 10
r_convergence 10
}

e = energy('ccsd(t)')

print_out('Stephenergy {}'.format(e))

