memory 4 GB

molecule  {
0 3
O   -1.506400547086   -0.018253147323    0.000000000000 
H   -0.545720520650    0.061985564769    0.000000000000          
H   -1.821921160879    0.887441769622    0.000000000000
O    1.655583497464   -0.041569406072    0.000000000000
}
set {
basis aug-cc-pvtz
reference uhf
e_convergence 10
scf_type pk
freeze_core true
}

set ccenergy {
e_convergence 10
r_convergence 10
}

e = energy('ccsd(t)')

print_out('Stephenergy {}'.format(e))

