memory 4 GB

molecule  {
0 3
O    0.000000000000    0.000000000000    1.263068531563
H    0.000000000000   -0.760458395200    1.852487610637
H   -0.000000000000    0.760458395200    1.852487610637
O    0.000000000000    0.000000000000   -1.496515652763
}
set {
basis aug-cc-pvtz
reference uhf
e_convergence 10
scf_type pk
freeze_core true
}

set ccenergy {
e_convergence 10
r_convergence 10
}

e = energy('ccsd(t)')

print_out('Stephenergy {}'.format(e))

