memory 4 GB

molecule  {
0 3
O    0.000000000000    0.000000000000    1.270170376227
H    0.000000000000   -0.757965407668    1.859547910427
H   -0.000000000000    0.757965407668    1.859547910427
O    0.000000000000    0.000000000000   -1.504507223573
}
set {
basis aug-cc-pvtz
reference uhf
e_convergence 10
scf_type pk
freeze_core true
}

set ccenergy {
e_convergence 10
r_convergence 10
}

e = energy('ccsd(t)')

print_out('Stephenergy {}'.format(e))

