memory 4 GB

molecule  {
0 3
O   -1.504262787402   -0.000978429702    0.000000000000 
H   -0.554469605188    0.155333420247    0.000000000000          
H   -1.895057048008    0.875127905770    0.000000000000
O    1.658605235419   -0.063950001853    0.000000000000
}
set {
basis aug-cc-pvtz
reference uhf
e_convergence 10
scf_type pk
freeze_core true
}

set ccenergy {
e_convergence 10
r_convergence 10
}

e = energy('ccsd(t)')

print_out('Stephenergy {}'.format(e))

