memory 4 GB

molecule  {
0 3
O    0.000000000000    0.000000000000   -1.646969748416
H    0.000000000000   -0.754282819600   -1.051447439590
H   -0.000000000000    0.754282819600   -1.051447439590
O    0.000000000000    0.000000000000    1.779471243410
}
set {
basis aug-cc-pvtz
reference uhf
e_convergence 10
scf_type pk
freeze_core true
}

set ccenergy {
e_convergence 10
r_convergence 10
}

e = energy('ccsd(t)')

print_out('Stephenergy {}'.format(e))

