memory 4 GB

molecule  {
0 1
O    0.000000000000   -0.000000000000   -0.066121188700
H    0.000000000000   -0.758665844600    0.524695623500
H   -0.000000000000    0.758665844600    0.524695623500
}
set {
basis aug-cc-pvtz
reference uhf
e_convergence 10
scf_type pk
freeze_core true
}

set ccenergy {
e_convergence 10
r_convergence 10
}

e = energy('ccsd(t)')

print_out('Stephenergy {}'.format(e))

