memory 4 GB

molecule  {
0 3
O   -1.504736279283   -0.001190445094    0.000000000000 
H   -0.553944836916    0.156631945424    0.000000000000          
H   -1.894120969940    0.877191611432    0.000000000000
O    1.658986680699   -0.063949837570    0.000000000000
}
set {
basis aug-cc-pvtz
reference uhf
e_convergence 10
scf_type pk
freeze_core true
}

set ccenergy {
e_convergence 10
r_convergence 10
}

e = energy('ccsd(t)')

print_out('Stephenergy {}'.format(e))

