memory 4 GB

molecule  {
0 3
O    0.000000000000    0.000000000000   -1.588748526308
H    0.000000000000   -0.754857360832   -0.989765661808
H   -0.000000000000    0.754857360832   -0.989765661808
O    0.000000000000    0.000000000000    1.713476995792
}
set {
basis aug-cc-pvtz
reference uhf
e_convergence 10
scf_type pk
freeze_core true
}

set ccenergy {
e_convergence 10
r_convergence 10
}

e = energy('ccsd(t)')

print_out('Stephenergy {}'.format(e))

