memory 4 GB

molecule  {
0 3
O   -1.638500681069   -0.022700461389    0.000000000000 
H   -0.677369750577   -0.024528944568    0.000000000000          
H   -1.865256368485    0.912126599917    0.000000000000
O    1.798709241811   -0.033226260127    0.000000000000
}
set {
basis aug-cc-pvtz
reference uhf
e_convergence 10
scf_type pk
freeze_core true
}

set ccenergy {
e_convergence 10
r_convergence 10
}

e = energy('ccsd(t)')

print_out('Stephenergy {}'.format(e))

