memory 4 GB

molecule  {
0 3
O    0.000000000000    0.000000000000   -1.646778481826
H    0.000000000000   -0.754305593000   -1.048672394108
H   -0.000000000000    0.754305593000   -1.048672394108
O    0.000000000000    0.000000000000    1.778930270633
}
set {
basis aug-cc-pvtz
reference uhf
e_convergence 10
scf_type pk
freeze_core true
}

set ccenergy {
e_convergence 10
r_convergence 10
}

e = energy('ccsd(t)')

print_out('Stephenergy {}'.format(e))

