memory 4 GB

molecule  {
0 3
O   -1.504262781504   -0.001191536185   -0.000076021644
H   -0.554379148204    0.156621815115    0.002557668518
H   -1.894547597504    0.877195558615   -0.000518972818
O    1.658567429896   -0.063948356885   -0.000052434719
}
set {
basis aug-cc-pvtz
reference uhf
e_convergence 10
scf_type pk
freeze_core true
}

set ccenergy {
e_convergence 10
r_convergence 10
maxiter 100
}

e = energy('ccsd(t)')

print_out('Stephenergy {}'.format(e))

