memory 4 GB

molecule  {
0 3
O    0.000000000000    0.000000000000   -1.503956028999
H    0.000000000000   -0.748606484000   -0.895078316418
H   -0.000000000000    0.748606484000   -0.895078316418
O    0.000000000000    0.000000000000    1.616752171342
}
set {
basis aug-cc-pvtz
reference uhf
e_convergence 10
scf_type pk
freeze_core true
}

set ccenergy {
e_convergence 10
r_convergence 10
}

e = energy('ccsd(t)')

print_out('Stephenergy {}'.format(e))

