memory 10 GB

molecule {
0 2
O 
H 1 R1
R1 = 0.96
}

set {
basis aug-cc-pvtz
e_convergence 10
reference uhf
scf_type pk
g_convergence gau_verytight
}

optimize("scf")

