memory 4 GB

molecule  {
0 3
O    0.000000000000   -0.000266073240    1.270171670022
H    0.000000000000   -0.758170011596    1.859912760912
H   -0.000000000000    0.761489426804    1.859188727532
O    0.000000000000    0.000056919904   -1.504508874478
}
set {
basis aug-cc-pvtz
reference uhf
e_convergence 10
scf_type pk
freeze_core true
}

set ccenergy {
e_convergence 10
r_convergence 10
}

e = energy('ccsd(t)')

print_out('Stephenergy {}'.format(e))

