memory 4 GB

molecule  {
0 3
O    0.000000000000    0.000000000000    1.268861218900
H    0.000000000000   -0.759959574100    1.857959265800
H   -0.000000000000    0.759959574100    1.857959265800
O    0.000000000000   -0.000000000000   -1.502997868100
}
set {
basis aug-cc-pvtz
reference uhf
e_convergence 10
scf_type pk
freeze_core true
}

set ccenergy {
e_convergence 10
r_convergence 10
}

e = energy('ccsd(t)')

print_out('Stephenergy {}'.format(e))

