memory 4 GB

molecule  {
0 3
O   -1.522636442466   -0.028734999340    0.000000000000 
H   -0.559902623793   -0.011805002489    0.000000000000          
H   -1.778826174378    0.895625326142    0.000000000000
O    1.669997618343   -0.026953715940    0.000000000000
}
set {
basis aug-cc-pvtz
reference uhf
e_convergence 10
scf_type pk
freeze_core true
}

set ccenergy {
e_convergence 10
r_convergence 10
}

e = energy('ccsd(t)')

print_out('Stephenergy {}'.format(e))

