memory 4 GB

molecule  {
0 1
O    0.000000000000    0.000000000000   -0.066342508076
H    0.000000000000   -0.758666341000    0.526451873284
H   -0.000000000000    0.758666341000    0.526451873284
}
set {
basis aug-cc-pvtz
reference uhf
e_convergence 10
scf_type pk
freeze_core true
}

set ccenergy {
e_convergence 10
r_convergence 10
}

e = energy('ccsd(t)')

print_out('Stephenergy {}'.format(e))

