memory 4 GB

molecule  {
0 3
O     0.0000000000   0.0000000000   1.2701716700
H     0.0000000000  -0.7598297192   1.8595507442
H    -0.0000000000   0.7598297192   1.8595507442
O     0.0000000000   0.0000000000  -1.5045088745
}
set {
basis aug-cc-pvtz
reference uhf
e_convergence 10
scf_type pk
freeze_core true
}

set ccenergy {
e_convergence 10
r_convergence 10
}

e = energy('ccsd(t)')

print_out('Stephenergy {}'.format(e))

