memory 4 GB

molecule  {
0 3
O   -1.503780892634   -0.001191165859    0.000000000000 
H   -0.554806399766    0.156622626007    0.000000000000          
H   -1.894975262977    0.877195860101    0.000000000000
O    1.658139408570   -0.063948797302    0.000000000000
}
set {
basis aug-cc-pvtz
reference uhf
e_convergence 10
scf_type pk
freeze_core true
}

set ccenergy {
e_convergence 10
r_convergence 10
}

e = energy('ccsd(t)')

print_out('Stephenergy {}'.format(e))

