memory 4 GB

molecule  {
0 3
O    0.000000000000    0.000000000000   -1.647904356072
H    0.000000000000   -0.754286053900   -1.050573258098
H   -0.000000000000    0.754286053900   -1.050573258098
O    0.000000000000    0.000000000000    1.780295688302
}
set {
basis aug-cc-pvtz
reference uhf
e_convergence 10
scf_type pk
freeze_core true
}

set ccenergy {
e_convergence 10
r_convergence 10
}

e = energy('ccsd(t)')

print_out('Stephenergy {}'.format(e))

