memory 4 GB

molecule  {
0 3
O    0.000000000000    0.000000000000   -1.646297011653
H    0.000000000000   -0.754305593000   -1.050856248927
H   -0.000000000000    0.754305593000   -1.050856248927
O    0.000000000000    0.000000000000    1.778724005873
}
set {
basis aug-cc-pvtz
reference uhf
e_convergence 10
scf_type pk
freeze_core true
}

set ccenergy {
e_convergence 10
r_convergence 10
}

e = energy('ccsd(t)')

print_out('Stephenergy {}'.format(e))

