memory 4 GB

molecule  {
0 3
O   -1.504262787402   -0.001191536213    0.000000000000 
H   -0.554379150402    0.156621815687    0.000000000000          
H   -1.892076531818    0.876541027860    0.000000000000
O    1.658411736329   -0.063907115506    0.000000000000
}
set {
basis aug-cc-pvtz
reference uhf
e_convergence 10
scf_type pk
freeze_core true
}

set ccenergy {
e_convergence 10
r_convergence 10
}

e = energy('ccsd(t)')

print_out('Stephenergy {}'.format(e))

