memory 4 GB

molecule  {
0 3
O    0.000000000000    0.000000000000    1.269619583388
H    0.000000000000   -0.759829563800    1.859885300662
H   -0.000000000000    0.759829563800    1.859885300662
O    0.000000000000    0.000000000000   -1.503998948038
}
set {
basis aug-cc-pvtz
reference uhf
e_convergence 10
scf_type pk
freeze_core true
}

set ccenergy {
e_convergence 10
r_convergence 10
}

e = energy('ccsd(t)')

print_out('Stephenergy {}'.format(e))

