memory 4 GB

molecule  {
0 3
O    0.000000000000    0.000000000000    1.269690199848
H    0.000000000000   -0.759829719200    1.858222062404
H   -0.000000000000    0.759829719200    1.858222062404
O    0.000000000000    0.000000000000   -1.503859966237
}
set {
basis aug-cc-pvtz
reference uhf
e_convergence 10
scf_type pk
freeze_core true
}

set ccenergy {
e_convergence 10
r_convergence 10
}

e = energy('ccsd(t)')

print_out('Stephenergy {}'.format(e))

