memory 4 GB

molecule  {
0 3
O   -1.524700329696   -0.028676944082    0.000000000000 
H   -0.564657593419   -0.013044906428    0.000000000000          
H   -1.780007037197    0.897946727928    0.000000000000
O    1.672435516980   -0.027079915394    0.000000000000
}
set {
basis aug-cc-pvtz
reference uhf
e_convergence 10
scf_type pk
freeze_core true
}

set ccenergy {
e_convergence 10
r_convergence 10
}

e = energy('ccsd(t)')

print_out('Stephenergy {}'.format(e))

