memory 4 GB

molecule  {
0 3
O   -1.504254809230   -0.001190138792    0.000000000000 
H   -0.551813587211    0.156583733128    0.000000000000          
H   -1.894722683441    0.877109410284    0.000000000000
O    1.658408835961   -0.063941926639    0.000000000000
}
set {
basis aug-cc-pvtz
reference uhf
e_convergence 10
scf_type pk
freeze_core true
}

set ccenergy {
e_convergence 10
r_convergence 10
}

e = energy('ccsd(t)')

print_out('Stephenergy {}'.format(e))

