memory 4 GB

molecule  {
0 3
O   -1.496507563314   -0.005059940085    0.000000000000 
H   -0.544027786966    0.144432320906    0.000000000000          
H   -1.875578125991    0.880188371098    0.000000000000
O    1.648964732683   -0.059500478429    0.000000000000
}
set {
basis aug-cc-pvtz
reference uhf
e_convergence 10
scf_type pk
freeze_core true
}

set ccenergy {
e_convergence 10
r_convergence 10
}

e = energy('ccsd(t)')

print_out('Stephenergy {}'.format(e))

