memory 4 GB

molecule  {
0 3
O    0.000000000000    0.000000000000   -1.464477094306
H    0.000000000000   -0.734514175600   -0.843827685887
H   -0.000000000000    0.734514175600   -0.843827685887
O    0.000000000000    0.000000000000    1.570814725353
}
set {
basis aug-cc-pvtz
reference uhf
e_convergence 10
scf_type pk
freeze_core true
}

set ccenergy {
e_convergence 10
r_convergence 10
}

e = energy('ccsd(t)')

print_out('Stephenergy {}'.format(e))

