memory 4 GB

molecule  {
0 3
O    0.000000000000    0.000000000000   -1.647450061767
H    0.000000000000   -0.754282211900   -1.052773406286
H   -0.000000000000    0.754282211900   -1.052773406286
O    0.000000000000    0.000000000000    1.780118652673
}
set {
basis aug-cc-pvtz
reference uhf
e_convergence 10
scf_type pk
freeze_core true
}

set ccenergy {
e_convergence 10
r_convergence 10
}

e = energy('ccsd(t)')

print_out('Stephenergy {}'.format(e))

