memory 4 GB

molecule  {
0 3
O    0.000000000000    0.000000000000   -1.616354722010
H    0.000000000000   -0.753858521800   -1.018203420492
H   -0.000000000000    0.753858521800   -1.018203420492
O    0.000000000000    0.000000000000    1.744666866149
}
set {
basis aug-cc-pvtz
reference uhf
e_convergence 10
scf_type pk
freeze_core true
}

set ccenergy {
e_convergence 10
r_convergence 10
}

e = energy('ccsd(t)')

print_out('Stephenergy {}'.format(e))

