memory 4 GB

molecule  {
0 3
O   -1.504262781500   -0.001191536200    0.000000000000
H   -0.554379148200    0.156621815100    0.000000000000
H   -1.894547597500    0.877195558600    0.000000000000
O    1.658567429900   -0.063948356900    0.000000000000
}
set {
basis aug-cc-pvtz
reference uhf
e_convergence 10
scf_type pk
freeze_core true
}

set ccenergy {
e_convergence 10
r_convergence 10
}

e = energy('ccsd(t)')

print_out('Stephenergy {}'.format(e))

