memory 4 GB

molecule  {
0 3
O   -1.504254809230   -0.001190138792    0.000000000000 
H   -0.554372391630    0.156632058308    0.000000000000          
H   -1.897019450969    0.877846531605    0.000000000000
O    1.658714781136   -0.063991416910    0.000000000000
}
set {
basis aug-cc-pvtz
reference uhf
e_convergence 10
scf_type pk
freeze_core true
}

set ccenergy {
e_convergence 10
r_convergence 10
}

e = energy('ccsd(t)')

print_out('Stephenergy {}'.format(e))

