memory 4 GB

molecule  {
0 3
O    0.000000000000    0.000000000000    1.269688906053
H    0.000000000000   -0.759829054300    1.859975496927
H   -0.000000000000    0.759829054300    1.859975496927
O    0.000000000000    0.000000000000   -1.504079637073
}
set {
basis aug-cc-pvtz
reference uhf
e_convergence 10
scf_type pk
freeze_core true
}

set ccenergy {
e_convergence 10
r_convergence 10
}

e = energy('ccsd(t)')

print_out('Stephenergy {}'.format(e))

