memory 4 GB

molecule  {
0 3
O    0.000000000000    0.000000000000   -1.642913919703
H    0.000000000000   -0.754350113400   -1.045069515184
H   -0.000000000000    0.754350113400   -1.045069515184
O    0.000000000000    0.000000000000    1.774611680256
}
set {
basis aug-cc-pvtz
reference uhf
e_convergence 10
scf_type pk
freeze_core true
}

set ccenergy {
e_convergence 10
r_convergence 10
}

e = energy('ccsd(t)')

print_out('Stephenergy {}'.format(e))

