memory 4 GB

molecule  {
0 3
O    0.000000000000    0.000000000000    1.270653197396
H    0.000000000000   -0.759829662100    1.859123095822
H   -0.000000000000    0.759829662100    1.859123095822
O    0.000000000000    0.000000000000   -1.504936510378
}
set {
basis aug-cc-pvtz
reference uhf
e_convergence 10
scf_type pk
freeze_core true
}

set ccenergy {
e_convergence 10
r_convergence 10
}

e = energy('ccsd(t)')

print_out('Stephenergy {}'.format(e))

