memory 4 GB

molecule  {
0 3
O   -1.558088525294   -0.023328877326    0.000000000000 
H   -0.595041728052   -0.016000482227    0.000000000000          
H   -1.818483503338    0.902617628488    0.000000000000
O    1.710162556445   -0.032536063204    0.000000000000
}
set {
basis aug-cc-pvtz
reference uhf
e_convergence 10
scf_type pk
freeze_core true
}

set ccenergy {
e_convergence 10
r_convergence 10
}

e = energy('ccsd(t)')

print_out('Stephenergy {}'.format(e))

