memory 4 GB

molecule  {
0 3
O   -1.503781311452   -0.001191229525    0.000000000000
H   -0.554806702883    0.156621928131    0.000000000000
H   -1.894975005286    0.877195944839    0.000000000000
O    1.658139830251   -0.063948695003    0.000000000000
}
set {
basis aug-cc-pvtz
reference uhf
e_convergence 10
scf_type pk
freeze_core true
}

set ccenergy {
e_convergence 10
r_convergence 10
}

e = energy('ccsd(t)')

print_out('Stephenergy {}'.format(e))

