memory 4 GB

molecule  {
0 3
O   -1.524700329696   -0.028676944082    0.000000000000 
H   -0.562096927496   -0.015258153184    0.000000000000          
H   -1.779825965326    0.899320180574    0.000000000000
O    1.672262762574   -0.027027000731    0.000000000000
}
set {
basis aug-cc-pvtz
reference uhf
e_convergence 10
scf_type pk
freeze_core true
}

set ccenergy {
e_convergence 10
r_convergence 10
}

e = energy('ccsd(t)')

print_out('Stephenergy {}'.format(e))

