memory 4 GB

molecule  {
0 3
O    0.000000000000    0.000000000000    1.270171675013
H    0.000000000000   -0.759829722200    1.861307019831
H   -0.000000000000    0.759829722200    1.861307019831
O    0.000000000000    0.000000000000   -1.504730202128
}
set {
basis aug-cc-pvtz
reference uhf
e_convergence 10
scf_type pk
freeze_core true
}

set ccenergy {
e_convergence 10
r_convergence 10
}

e = energy('ccsd(t)')

print_out('Stephenergy {}'.format(e))

