memory 4 GB

molecule  {
0 3
O    0.000000000000    0.000000000000    1.269690257049
H    0.000000000000   -0.759829662100    1.859978268823
H   -0.000000000000    0.759829662100    1.859978268823
O    0.000000000000    0.000000000000   -1.504081337377
}
set {
basis aug-cc-pvtz
reference uhf
e_convergence 10
scf_type pk
freeze_core true
}

set ccenergy {
e_convergence 10
r_convergence 10
}

e = energy('ccsd(t)')

print_out('Stephenergy {}'.format(e))

