memory 4 GB

molecule  {
0 3
O   -1.519781476630   -0.028422932441    0.000000000000 
H   -0.557001043717   -0.002211863180    0.000000000000          
H   -1.780199460280    0.898951222658    0.000000000000
O    1.667046356080   -0.028079799543    0.000000000000
}
set {
basis aug-cc-pvtz
reference uhf
e_convergence 10
scf_type pk
freeze_core true
}

set ccenergy {
e_convergence 10
r_convergence 10
}

e = energy('ccsd(t)')

print_out('Stephenergy {}'.format(e))

