memory 4 GB

molecule  {
0 3
O   -0.000000000000    0.000000000000   -1.647422885900
H    0.000000000000   -0.754286053900   -1.051000844600
H   -0.000000000000    0.754286053900   -1.051000844600
O   -0.000000000000    0.000000000000    1.779868101800
}
set {
basis aug-cc-pvtz
reference uhf
e_convergence 10
scf_type pk
freeze_core true
}

set ccenergy {
e_convergence 10
r_convergence 10
}

e = energy('ccsd(t)')

print_out('Stephenergy {}'.format(e))

