memory 4 GB

molecule  {
0 3
O   0.000   0.000   0.000 
H   0.950   0.000   0.000          
H  -0.250   0.968   0.000
O   3.450   0.000   0.000
}
set {
basis aug-cc-pvtz
reference uhf
e_convergence 10
scf_type pk
freeze_core true
}

set ccenergy {
e_convergence 10
r_convergence 10
}

e = energy('ccsd(t)')

print_out('Stephenergy {}'.format(e))

