memory 4 GB

molecule  {
0 3
O    0.000000000000    0.000000000000   -1.261379187475
H    0.000000000000   -0.760526118468   -0.671653124075
H   -0.000000000000    0.760526118468   -0.671653124075
O    0.000000000000    0.000000000000    1.346019693225
}
set {
basis aug-cc-pvtz
reference uhf
e_convergence 10
scf_type pk
freeze_core true
}

set ccenergy {
e_convergence 10
r_convergence 10
}

e = energy('ccsd(t)')

print_out('Stephenergy {}'.format(e))

