memory 4 GB

molecule  {
0 3
O   -1.638982113598   -0.022705896175    0.000000000000 
H   -0.676942049298   -0.024531189275    0.000000000000          
H   -1.867307003111    0.912759050411    0.000000000000
O    1.799292933895   -0.033260534035    0.000000000000
}
set {
basis aug-cc-pvtz
reference uhf
e_convergence 10
scf_type pk
freeze_core true
}

set ccenergy {
e_convergence 10
r_convergence 10
}

e = energy('ccsd(t)')

print_out('Stephenergy {}'.format(e))

