memory 4 GB

molecule  {
0 3
O   -1.503781311452   -0.000978123014    0.000000000000
H   -0.554897157669    0.155333532690    0.000000000000
H   -1.895484448393    0.875128288521    0.000000000000
O    1.658177629272   -0.063950339742    0.000000000000
}
set {
basis aug-cc-pvtz
reference uhf
e_convergence 10
scf_type pk
freeze_core true
}

set ccenergy {
e_convergence 10
r_convergence 10
}

e = energy('ccsd(t)')

print_out('Stephenergy {}'.format(e))

