memory 4 GB

molecule  {
0 3
O   -1.522636442466   -0.028942593331    0.000000000000 
H   -0.559924226166   -0.012705345277    0.000000000000          
H   -1.777978429249    0.899030721309    0.000000000000
O    1.669945563838   -0.026903963023    0.000000000000
}
set {
basis aug-cc-pvtz
reference uhf
e_convergence 10
scf_type pk
freeze_core true
}

set ccenergy {
e_convergence 10
r_convergence 10
}

e = energy('ccsd(t)')

print_out('Stephenergy {}'.format(e))

