memory 4 GB

molecule  {
0 3
O   -1.496507563314   -0.004847340589    0.000000000000 
H   -0.546668406878    0.143188255657    0.000000000000          
H   -1.875918518062    0.878193914189    0.000000000000
O    1.649152563539   -0.059509021588    0.000000000000
}
set {
basis aug-cc-pvtz
reference uhf
e_convergence 10
scf_type pk
freeze_core true
}

set ccenergy {
e_convergence 10
r_convergence 10
}

e = energy('ccsd(t)')

print_out('Stephenergy {}'.format(e))

