memory 4 GB

molecule  {
0 3
O   -1.504765099500   -0.002008033400    0.000000000000 
H   -0.554028862400    0.152263197200    0.000000000000          
H   -1.891382510700    0.877944460600    0.000000000000
O    1.658848247500   -0.062904414800    0.000000000000
}
set {
basis aug-cc-pvtz
reference uhf
e_convergence 10
scf_type pk
freeze_core true
}

set ccenergy {
e_convergence 10
r_convergence 10
}

e = energy('ccsd(t)')

print_out('Stephenergy {}'.format(e))

