memory 4 GB

molecule  {
0 3
O    0.000000000000    0.000000000000   -1.464958564480
H    0.000000000000   -0.734514175600   -0.845156367706
H   -0.000000000000    0.734514175600   -0.845156367706
O    0.000000000000    0.000000000000    1.571463633594
}
set {
basis aug-cc-pvtz
reference uhf
e_convergence 10
scf_type pk
freeze_core true
}

set ccenergy {
e_convergence 10
r_convergence 10
}

e = energy('ccsd(t)')

print_out('Stephenergy {}'.format(e))

