memory 4 GB

molecule  {
0 3
O   -1.520512699176   -0.026868967589    0.000000000000 
H   -0.557836621776   -0.011974913990    0.000000000000          
H   -1.784667594957    0.895332430620    0.000000000000
O    1.668111760745   -0.028790586641    0.000000000000
}
set {
basis aug-cc-pvtz
reference uhf
e_convergence 10
scf_type pk
freeze_core true
}

set ccenergy {
e_convergence 10
r_convergence 10
}

e = energy('ccsd(t)')

print_out('Stephenergy {}'.format(e))

