memory 4 GB

molecule  {
0 3
O   -1.626052396214   -0.021566216617    0.000000000000 
H   -0.663256075224   -0.024354598835    0.000000000000          
H   -1.861699292116    0.907732162181    0.000000000000
O    1.785147538951   -0.034094600738    0.000000000000
}
set {
basis aug-cc-pvtz
reference uhf
e_convergence 10
scf_type pk
freeze_core true
}

set ccenergy {
e_convergence 10
r_convergence 10
}

e = energy('ccsd(t)')

print_out('Stephenergy {}'.format(e))

