memory 4 GB

molecule  {
0 3
O    0.000000000000    0.000000000000   -1.442928669299
H    0.000000000000   -0.728091363768   -0.826143058099
H   -0.000000000000    0.728091363768   -0.826143058099
O    0.000000000000    0.000000000000    1.547037715701
}
set {
basis aug-cc-pvtz
reference uhf
e_convergence 10
scf_type pk
freeze_core true
}

set ccenergy {
e_convergence 10
r_convergence 10
}

e = energy('ccsd(t)')

print_out('Stephenergy {}'.format(e))

