memory 4 GB

molecule  {
0 3
O   -1.504765099520   -0.002008033377    0.000000000000 
H   -0.554028862420    0.152263197223    0.000000000000          
H   -1.893853503000    0.878599299834    0.000000000000
O    1.659003942458   -0.062945675601    0.000000000000
}
set {
basis aug-cc-pvtz
reference uhf
e_convergence 10
scf_type pk
freeze_core true
}

set ccenergy {
e_convergence 10
r_convergence 10
}

e = energy('ccsd(t)')

print_out('Stephenergy {}'.format(e))

