memory 4 GB

molecule  {
0 3
O    0.000000000000   -0.000191965470   -1.647450055281
H    0.000000000000   -0.753039675968   -1.053275476161
H   -0.000000000000    0.755524741832   -1.048758791401
O    0.000000000000    0.000035383728    1.779897323919
}
set {
basis aug-cc-pvtz
reference uhf
e_convergence 10
scf_type pk
freeze_core true
}

set ccenergy {
e_convergence 10
r_convergence 10
}

e = energy('ccsd(t)')

print_out('Stephenergy {}'.format(e))

