memory 4 GB

molecule  {
0 3
O   -1.643979285178   -0.028695576268    0.000000000000 
H   -0.693070115975   -0.028691629369    0.000000000000          
H   -1.893074137657    0.939303385075    0.000000000000
O    1.806929884025   -0.028681242795    0.000000000000
}
set {
basis aug-cc-pvtz
reference uhf
e_convergence 10
scf_type pk
freeze_core true
}

set ccenergy {
e_convergence 10
r_convergence 10
}

e = energy('ccsd(t)')

print_out('Stephenergy {}'.format(e))

