memory 4 GB

molecule  {
0 3
O   -1.520994108204   -0.026875888468    0.000000000000 
H   -0.557408916319   -0.014205558080    0.000000000000          
H   -1.783917810869    0.896673417670    0.000000000000
O    1.668518977227   -0.028727609280    0.000000000000
}
set {
basis aug-cc-pvtz
reference uhf
e_convergence 10
scf_type pk
freeze_core true
}

set ccenergy {
e_convergence 10
r_convergence 10
}

e = energy('ccsd(t)')

print_out('Stephenergy {}'.format(e))

