memory 4 GB

molecule  {
0 3
O    0.000000000000    0.000000000000    1.269690204839
H    0.000000000000   -0.759829722200    1.859978338013
H   -0.000000000000    0.759829722200    1.859978338013
O    0.000000000000    0.000000000000   -1.504081293887
}
set {
basis aug-cc-pvtz
reference uhf
e_convergence 10
scf_type pk
freeze_core true
}

set ccenergy {
e_convergence 10
r_convergence 10
}

e = energy('ccsd(t)')

print_out('Stephenergy {}'.format(e))

