memory 4 GB

molecule  {
0 3
O    0.000000000000    0.000000000000   -1.647451218590
H    0.000000000000   -0.752419172968   -1.051019853090
H   -0.000000000000    0.752419172968   -1.051019853090
O    0.000000000000    0.000000000000    1.779898829910
}
set {
basis aug-cc-pvtz
reference uhf
e_convergence 10
scf_type pk
freeze_core true
}

set ccenergy {
e_convergence 10
r_convergence 10
}

e = energy('ccsd(t)')

print_out('Stephenergy {}'.format(e))

