memory 4 GB

molecule  {
0 3
O    0.000000000000    0.000000000000   -1.548703289418
H    0.000000000000   -0.752326346800   -0.943289768844
H   -0.000000000000    0.752326346800   -0.943289768844
O    0.000000000000    0.000000000000    1.667574951356
}
set {
basis aug-cc-pvtz
reference uhf
e_convergence 10
scf_type pk
freeze_core true
}

set ccenergy {
e_convergence 10
r_convergence 10
}

e = energy('ccsd(t)')

print_out('Stephenergy {}'.format(e))

