memory 4 GB

molecule  {
0 3
O   -1.496507563300   -0.004847340600    0.000000000000 
H   -0.544109223600    0.143144826100    0.000000000000          
H   -1.876090662400    0.878119602000    0.000000000000
O    1.649002158400   -0.059501602800    0.000000000000
}
set {
basis aug-cc-pvtz
reference uhf
e_convergence 10
scf_type pk
freeze_core true
}

set ccenergy {
e_convergence 10
r_convergence 10
}

e = energy('ccsd(t)')

print_out('Stephenergy {}'.format(e))

