memory 4 GB

molecule  {
0 3
O    0.000000000000    0.000000000000   -1.232769943139
H    0.000000000000   -0.758665699200   -0.642862296913
H   -0.000000000000    0.758665699200   -0.642862296913
O    0.000000000000    0.000000000000    1.313782281187
}
set {
basis aug-cc-pvtz
reference uhf
e_convergence 10
scf_type pk
freeze_core true
}

set ccenergy {
e_convergence 10
r_convergence 10
}

e = energy('ccsd(t)')

print_out('Stephenergy {}'.format(e))

