memory 4 GB

molecule  {
0 3
O   -1.626533831237   -0.021778869388    0.000000000000 
H   -0.662852079059   -0.022992810772    0.000000000000          
H   -1.860776131259    0.909760702736    0.000000000000
O    1.785545351016   -0.034095569492    0.000000000000
}
set {
basis aug-cc-pvtz
reference uhf
e_convergence 10
scf_type pk
freeze_core true
}

set ccenergy {
e_convergence 10
r_convergence 10
}

e = energy('ccsd(t)')

print_out('Stephenergy {}'.format(e))

