memory 4 GB

molecule  {
0 3
O   -1.504765099520   -0.002008033377    0.000000000000 
H   -0.554028862420    0.154510628409    0.000000000000          
H   -1.891696399066    0.876626808941    0.000000000000
O    1.658868025300   -0.062962999339    0.000000000000
}
set {
basis aug-cc-pvtz
reference uhf
e_convergence 10
scf_type pk
freeze_core true
}

set ccenergy {
e_convergence 10
r_convergence 10
}

e = energy('ccsd(t)')

print_out('Stephenergy {}'.format(e))

