memory 4 GB

molecule  {
0 3
O   -1.626052396200   -0.021773619000    0.000000000000 
H   -0.663279771000   -0.022990669100    0.000000000000          
H   -1.861200811400    0.909766712400    0.000000000000
O    1.785117623200   -0.034101333500    0.000000000000
}
set {
basis aug-cc-pvtz
reference uhf
e_convergence 10
scf_type pk
freeze_core true
}

set ccenergy {
e_convergence 10
r_convergence 10
}

e = energy('ccsd(t)')

print_out('Stephenergy {}'.format(e))

