memory 4 GB

molecule  {
0 3
O    0.000000000000    0.000000000000   -1.643395389876
H    0.000000000000   -0.754350113400   -1.046398197002
H   -0.000000000000    0.754350113400   -1.046398197002
O    0.000000000000    0.000000000000    1.775260588498
}
set {
basis aug-cc-pvtz
reference uhf
e_convergence 10
scf_type pk
freeze_core true
}

set ccenergy {
e_convergence 10
r_convergence 10
}

e = energy('ccsd(t)')

print_out('Stephenergy {}'.format(e))

