memory 4 GB

molecule  {
0 3
O   -1.504765099520   -0.002008033377    0.000000000000 
H   -0.556587792599    0.152309999491    0.000000000000          
H   -1.891208919149    0.878024373117    0.000000000000
O    1.658998545498   -0.062912398959    0.000000000000
}
set {
basis aug-cc-pvtz
reference uhf
e_convergence 10
scf_type pk
freeze_core true
}

set ccenergy {
e_convergence 10
r_convergence 10
}

e = energy('ccsd(t)')

print_out('Stephenergy {}'.format(e))

