memory 4 GB

molecule  {
0 3
O    0.000000000000    0.000000000000   -1.647450061800
H    0.000000000000   -0.754282211900   -1.051017138000
H   -0.000000000000    0.754282211900   -1.051017138000
O    0.000000000000   -0.000000000000    1.779897330900
}
set {
basis aug-cc-pvtz
reference uhf
e_convergence 10
scf_type pk
freeze_core true
}

set ccenergy {
e_convergence 10
r_convergence 10
}

e = energy('ccsd(t)')

print_out('Stephenergy {}'.format(e))

