memory 4 GB

molecule  {
0 1
O    0.000000000000    0.000000000000   -0.071961263524
H    0.000000000000   -0.767863646632    0.571038736476
H   -0.000000000000    0.767863646632    0.571038736476
}
set {
basis aug-cc-pvtz
reference uhf
e_convergence 10
scf_type pk
freeze_core true
}

set ccenergy {
e_convergence 10
r_convergence 10
}

e = energy('ccsd(t)')

print_out('Stephenergy {}'.format(e))

