memory 4 GB

molecule  {
0 3
O   -1.504262781504   -0.001404642696    0.000000000000
H   -0.556847498144    0.157958532208    0.000000000000
H   -1.893863850645    0.879345795384    0.000000000000
O    1.658679876114   -0.063954960168    0.000000000000
}
set {
basis aug-cc-pvtz
reference uhf
e_convergence 10
scf_type pk
freeze_core true
}

set ccenergy {
e_convergence 10
r_convergence 10
}

e = energy('ccsd(t)')

print_out('Stephenergy {}'.format(e))

