memory 4 GB

molecule  {
0 3
O    0.000000000000    0.000000000000    1.253020189185
H    0.000000000000   -0.758665699200    1.842927835411
H   -0.000000000000    0.758665699200    1.842927835411
O    0.000000000000    0.000000000000   -1.485262604889
}
set {
basis aug-cc-pvtz
reference uhf
e_convergence 10
scf_type pk
freeze_core true
}

set ccenergy {
e_convergence 10
r_convergence 10
}

e = energy('ccsd(t)')

print_out('Stephenergy {}'.format(e))

