memory 4 GB

molecule  {
0 3
O    0.000000000000    0.000000000000   -1.261860657648
H    0.000000000000   -0.762389765100   -0.671225537575
H   -0.000000000000    0.762389765100   -0.671225537575
O    0.000000000000    0.000000000000    1.346447279725
}
set {
basis aug-cc-pvtz
reference uhf
e_convergence 10
scf_type pk
freeze_core true
}

set ccenergy {
e_convergence 10
r_convergence 10
}

e = energy('ccsd(t)')

print_out('Stephenergy {}'.format(e))

