memory 4 GB

molecule  {
0 3
O   -1.643497874596   -0.028480286271    0.000000000000 
H   -0.693468094948   -0.030057584563    0.000000000000          
H   -1.894000278870    0.937282683302    0.000000000000
O    1.806531905052   -0.028683142614    0.000000000000
}
set {
basis aug-cc-pvtz
reference uhf
e_convergence 10
scf_type pk
freeze_core true
}

set ccenergy {
e_convergence 10
r_convergence 10
}

e = energy('ccsd(t)')

print_out('Stephenergy {}'.format(e))

