memory 4 GB

molecule  {
0 3
O    0.000000000000    0.000000000000    1.264031471910
H    0.000000000000   -0.760458395200    1.851632437636
H   -0.000000000000    0.760458395200    1.851632437636
O    0.000000000000    0.000000000000   -1.497370825764
}
set {
basis aug-cc-pvtz
reference uhf
e_convergence 10
scf_type pk
freeze_core true
}

set ccenergy {
e_convergence 10
r_convergence 10
}

e = energy('ccsd(t)')

print_out('Stephenergy {}'.format(e))

