memory 4 GB

molecule  {
0 3
O    0.000000000000    0.000000000000   -1.548221819200
H    0.000000000000   -0.752326346800   -0.943717355300
H   -0.000000000000    0.752326346800   -0.943717355300
O    0.000000000000    0.000000000000    1.667147364900
}
set {
basis aug-cc-pvtz
reference uhf
e_convergence 10
scf_type pk
freeze_core true
}

set ccenergy {
e_convergence 10
r_convergence 10
}

e = energy('ccsd(t)')

print_out('Stephenergy {}'.format(e))

