memory 4 GB

molecule  {
0 3
O   -1.506400547086   -0.018463005014    0.000000000000 
H   -0.545692666786    0.065529500462    0.000000000000          
H   -1.821723555001    0.888173216032    0.000000000000
O    1.655569291451   -0.041628936321    0.000000000000
}
set {
basis aug-cc-pvtz
reference uhf
e_convergence 10
scf_type pk
freeze_core true
}

set ccenergy {
e_convergence 10
r_convergence 10
}

e = energy('ccsd(t)')

print_out('Stephenergy {}'.format(e))

