memory 4 GB

molecule  {
0 3
O   -1.558088525294   -0.023120912104    0.000000000000 
H   -0.595019690094   -0.019556454776    0.000000000000          
H   -1.818669837211    0.901932952921    0.000000000000
O    1.710172908581   -0.032476829042    0.000000000000
}
set {
basis aug-cc-pvtz
reference uhf
e_convergence 10
scf_type pk
freeze_core true
}

set ccenergy {
e_convergence 10
r_convergence 10
}

e = energy('ccsd(t)')

print_out('Stephenergy {}'.format(e))

