memory 4 GB

molecule  {
0 3
O   -1.643497874596   -0.028688748142    0.000000000000 
H   -0.693497874596   -0.030887145154    0.000000000000          
H   -1.893166063541    0.940709846298    0.000000000000
O    1.806481218291   -0.028638353309    0.000000000000
}
set {
basis aug-cc-pvtz
reference uhf
e_convergence 10
scf_type pk
freeze_core true
}

set ccenergy {
e_convergence 10
r_convergence 10
}

e = energy('ccsd(t)')

print_out('Stephenergy {}'.format(e))

