memory 4 GB

molecule  {
0 3
O   -1.524700329696   -0.028884544140    0.000000000000 
H   -0.562119881355   -0.011705534462    0.000000000000          
H   -1.779632916527    0.900020308448    0.000000000000
O    1.672252045046   -0.027087362370    0.000000000000
}
set {
basis aug-cc-pvtz
reference uhf
e_convergence 10
scf_type pk
freeze_core true
}

set ccenergy {
e_convergence 10
r_convergence 10
}

e = energy('ccsd(t)')

print_out('Stephenergy {}'.format(e))

