memory 10 GB

molecule {
0 3
O 
H 1 R1
O 1 R2 2 A1
H 3 R1 1 A1 2 D1
R1 = 0.9747006646
R2 = 100.0
A1 = 90.0
D1 = 180.0
}

set {
basis aug-cc-pvdz
e_convergence 10
reference uhf
scf_type pk
mp2_type conv
}

energy("mp2")

